c generated by sgen
p cnf 101 212
-2 -3 -4 0
-1 -3 -4 0
-1 -2 -4 0
-1 -2 -3 0
-6 -7 -8 0
-5 -7 -8 0
-5 -6 -8 0
-5 -6 -7 0
-10 -11 -12 0
-9 -11 -12 0
-9 -10 -12 0
-9 -10 -11 0
-14 -15 -16 0
-13 -15 -16 0
-13 -14 -16 0
-13 -14 -15 0
-18 -19 -20 0
-17 -19 -20 0
-17 -18 -20 0
-17 -18 -19 0
-22 -23 -24 0
-21 -23 -24 0
-21 -22 -24 0
-21 -22 -23 0
-26 -27 -28 0
-25 -27 -28 0
-25 -26 -28 0
-25 -26 -27 0
-30 -31 -32 0
-29 -31 -32 0
-29 -30 -32 0
-29 -30 -31 0
-34 -35 -36 0
-33 -35 -36 0
-33 -34 -36 0
-33 -34 -35 0
-38 -39 -40 0
-37 -39 -40 0
-37 -38 -40 0
-37 -38 -39 0
-42 -43 -44 0
-41 -43 -44 0
-41 -42 -44 0
-41 -42 -43 0
-46 -47 -48 0
-45 -47 -48 0
-45 -46 -48 0
-45 -46 -47 0
-50 -51 -52 0
-49 -51 -52 0
-49 -50 -52 0
-49 -50 -51 0
-54 -55 -56 0
-53 -55 -56 0
-53 -54 -56 0
-53 -54 -55 0
-58 -59 -60 0
-57 -59 -60 0
-57 -58 -60 0
-57 -58 -59 0
-62 -63 -64 0
-61 -63 -64 0
-61 -62 -64 0
-61 -62 -63 0
-66 -67 -68 0
-65 -67 -68 0
-65 -66 -68 0
-65 -66 -67 0
-70 -71 -72 0
-69 -71 -72 0
-69 -70 -72 0
-69 -70 -71 0
-74 -75 -76 0
-73 -75 -76 0
-73 -74 -76 0
-73 -74 -75 0
-78 -79 -80 0
-77 -79 -80 0
-77 -78 -80 0
-77 -78 -79 0
-82 -83 -84 0
-81 -83 -84 0
-81 -82 -84 0
-81 -82 -83 0
-86 -87 -88 0
-85 -87 -88 0
-85 -86 -88 0
-85 -86 -87 0
-90 -91 -92 0
-89 -91 -92 0
-89 -90 -92 0
-89 -90 -91 0
-94 -95 -96 0
-93 -95 -96 0
-93 -94 -96 0
-93 -94 -95 0
-97 -98 -99 0
-97 -98 -100 0
-97 -98 -101 0
-97 -99 -100 0
-97 -99 -101 0
-97 -100 -101 0
-98 -99 -100 0
-98 -99 -101 0
-98 -100 -101 0
-99 -100 -101 0
90 68 32 0
77 68 32 0
77 90 32 0
77 90 68 0
45 56 99 0
19 56 99 0
19 45 99 0
19 45 56 0
64 84 89 0
22 84 89 0
22 64 89 0
22 64 84 0
101 87 76 0
14 87 76 0
14 101 76 0
14 101 87 0
24 53 7 0
2 53 7 0
2 24 7 0
2 24 53 0
88 75 81 0
100 75 81 0
100 88 81 0
100 88 75 0
9 13 3 0
65 13 3 0
65 9 3 0
65 9 13 0
8 18 34 0
12 18 34 0
12 8 34 0
12 8 18 0
58 66 21 0
97 66 21 0
97 58 21 0
97 58 66 0
33 4 61 0
98 4 61 0
98 33 61 0
98 33 4 0
1 46 79 0
28 46 79 0
28 1 79 0
28 1 46 0
15 25 94 0
17 25 94 0
17 15 94 0
17 15 25 0
36 83 70 0
51 83 70 0
51 36 70 0
51 36 83 0
50 55 91 0
11 55 91 0
11 50 91 0
11 50 55 0
41 10 27 0
82 10 27 0
82 41 27 0
82 41 10 0
39 20 78 0
73 20 78 0
73 39 78 0
73 39 20 0
74 42 95 0
49 42 95 0
49 74 95 0
49 74 42 0
92 72 44 0
37 72 44 0
37 92 44 0
37 92 72 0
23 85 40 0
96 85 40 0
96 23 40 0
96 23 85 0
67 54 86 0
71 54 86 0
71 67 86 0
71 67 54 0
6 93 48 0
60 93 48 0
60 6 48 0
60 6 93 0
59 52 31 0
26 52 31 0
26 59 31 0
26 59 52 0
62 69 57 0
80 69 57 0
80 62 57 0
80 62 69 0
47 29 35 0
43 29 35 0
43 47 35 0
43 47 29 0
16 5 63 0
16 5 30 0
16 5 38 0
16 63 30 0
16 63 38 0
16 30 38 0
5 63 30 0
5 63 38 0
5 30 38 0
63 30 38 0
